
Gurobi 7.0.2 (linux64) logging started Thu Mar 17 14:09:31 2022


Gurobi 7.0.2 (linux64) logging started Thu Mar 17 14:10:47 2022


Gurobi 7.0.2 (linux64) logging started Thu Mar 17 14:11:07 2022


Gurobi 7.0.2 (linux64) logging started Thu Mar 17 14:11:19 2022

